c @top --> 66
c p10@v3 --> 65
c p10@v2 --> 64
c p10@v0 --> 62
c p8@v1 --> 60
c p4@v1 --> 45
c p1@v3 --> 32
c p13@v2 --> 21
c p3@v0 --> 56
c p13@v0 --> 19
c p25@v0 --> 53
c p17 --> 14
c p9@v0 --> 23
c p22 --> 7
c p8@v2 --> 61
c p1@v5 --> 34
c p9@v1 --> 24
c p24 --> 8
c p14 --> 17
c p16 --> 16
c p10@v1 --> 63
c p20 --> 15
c p1@v4 --> 33
c p12 --> 28
c p28 --> 2
c p3@v2 --> 58
c p27 --> 1
c p15 --> 43
c p26@v0 --> 3
c p5@v3 --> 38
c p9@v2 --> 25
c p26@v1 --> 4
c p6 --> 39
c p9@v4 --> 27
c p4@v3 --> 47
c p18@v0 --> 10
c p13@v1 --> 20
c p23 --> 6
c p5@v1 --> 36
c p25@v2 --> 55
c p18@v2 --> 12
c p18@v3 --> 13
c p18@v1 --> 11
c p19 --> 9
c p21 --> 18
c p1@v1 --> 30
c p1@v2 --> 31
c p5@v0 --> 35
c p0 --> 22
c p26@v2 --> 5
c p11@v0 --> 48
c p5@v2 --> 37
c p2@v2 --> 42
c p2@v0 --> 40
c p9@v3 --> 26
c p2@v1 --> 41
c p4@v0 --> 44
c p11@v1 --> 49
c p11@v2 --> 50
c p11@v3 --> 51
c p1@v0 --> 29
c p7 --> 52
c p25@v1 --> 54
c p3@v1 --> 57
c p4@v2 --> 46
c p8@v0 --> 59
p cnf 66 118
-60 -25 0
14 -28 0
-60 -27 0
-48 -65 0
-60 -65 0
-63 -59 0
-24 -59 0
-53 -8 0
-26 -60 0
-54 8 0
-50 -65 0
-26 -59 0
-29 -4 0
-29 -5 0
-51 -62 0
22 -8 0
-63 -51 0
-59 -27 0
-61 -65 0
-14 28 0
-59 -25 0
-15 -61 0
-49 -65 0
-64 -59 0
-15 -60 0
-59 -62 0
-55 8 0
-51 -64 0
-30 -5 0
-5 -32 0
22 -61 0
3 4 5 0
-3 -4 0
-3 -5 0
-4 -5 0
10 11 12 13 0
-10 -11 0
-10 -12 0
-10 -13 0
-11 -12 0
-11 -13 0
-12 -13 0
19 20 21 0
-19 -20 0
-19 -21 0
-20 -21 0
23 24 25 26 27 0
-23 -24 0
-23 -25 0
-23 -26 0
-23 -27 0
-24 -25 0
-24 -26 0
-24 -27 0
-25 -26 0
-25 -27 0
-26 -27 0
29 30 31 32 33 34 0
-29 -30 0
-29 -31 0
-29 -32 0
-29 -33 0
-29 -34 0
-30 -31 0
-30 -32 0
-30 -33 0
-30 -34 0
-31 -32 0
-31 -33 0
-31 -34 0
-32 -33 0
-32 -34 0
-33 -34 0
35 36 37 38 0
-35 -36 0
-35 -37 0
-35 -38 0
-36 -37 0
-36 -38 0
-37 -38 0
40 41 42 0
-40 -41 0
-40 -42 0
-41 -42 0
44 45 46 47 0
-44 -45 0
-44 -46 0
-44 -47 0
-45 -46 0
-45 -47 0
-46 -47 0
48 49 50 51 0
-48 -49 0
-48 -50 0
-48 -51 0
-49 -50 0
-49 -51 0
-50 -51 0
53 54 55 0
-53 -54 0
-53 -55 0
-54 -55 0
56 57 58 0
-56 -57 0
-56 -58 0
-57 -58 0
59 60 61 0
-59 -60 0
-59 -61 0
-60 -61 0
62 63 64 65 0
-62 -63 0
-62 -64 0
-62 -65 0
-63 -64 0
-63 -65 0
-64 -65 0
66 -66 0
